c FILE: i160-003

c SOURCE: From steinlib

c DESCRIPTION: Steinlib instance with 160 nodes and 240 edges.

p edge 160 240
e 1 7
e 1 18
e 1 35
e 1 40
e 1 97
e 1 100
e 1 122
e 1 130
e 1 156
e 2 22
e 2 76
e 2 102
e 3 37
e 3 133
e 3 140
e 3 158
e 4 57
e 4 70
e 5 83
e 5 142
e 5 146
e 5 151
e 6 7
e 7 86
e 7 157
e 8 108
e 9 82
e 9 123
e 10 14
e 10 29
e 10 61
e 10 119
e 10 121
e 11 87
e 12 63
e 12 116
e 13 64
e 13 80
e 13 136
e 14 18
e 14 63
e 14 94
e 14 112
e 14 126
e 14 132
e 14 141
e 15 18
e 15 25
e 15 111
e 15 144
e 16 28
e 16 146
e 17 51
e 17 130
e 18 77
e 18 118
e 18 123
e 18 147
e 19 156
e 20 87
e 20 102
e 21 86
e 21 103
e 22 53
e 23 85
e 23 121
e 24 116
e 25 74
e 25 89
e 26 64
e 26 148
e 27 89
e 28 104
e 28 128
e 29 34
e 29 72
e 30 141
e 31 90
e 32 56
e 32 76
e 32 115
e 32 124
e 33 49
e 33 82
e 33 88
e 33 96
e 33 123
e 34 55
e 34 112
e 35 43
e 35 102
e 36 39
e 36 86
e 37 42
e 37 89
e 38 77
e 38 151
e 39 45
e 39 120
e 39 156
e 40 75
e 40 129
e 40 130
e 40 149
e 41 118
e 42 139
e 42 147
e 43 82
e 43 138
e 43 142
e 44 140
e 45 72
e 46 79
e 46 124
e 47 123
e 48 85
e 48 136
e 49 80
e 49 109
e 49 160
e 50 67
e 50 110
e 50 150
e 51 118
e 51 138
e 52 142
e 52 151
e 53 66
e 53 75
e 53 117
e 53 156
e 54 98
e 55 62
e 55 124
e 56 78
e 56 135
e 57 84
e 57 91
e 57 104
e 57 156
e 58 70
e 59 108
e 60 77
e 61 72
e 62 81
e 62 103
e 62 144
e 63 64
e 63 72
e 63 100
e 63 124
e 63 127
e 63 148
e 64 73
e 65 101
e 66 122
e 67 141
e 68 80
e 68 150
e 69 72
e 71 72
e 71 118
e 72 94
e 72 101
e 72 128
e 72 143
e 72 159
e 73 137
e 74 142
e 75 98
e 76 118
e 77 85
e 78 114
e 78 118
e 78 139
e 78 144
e 80 103
e 81 107
e 81 156
e 82 84
e 82 157
e 84 97
e 84 146
e 86 106
e 87 100
e 87 108
e 89 100
e 89 104
e 89 130
e 89 135
e 90 119
e 91 102
e 92 133
e 93 160
e 95 113
e 95 118
e 95 125
e 95 130
e 95 136
e 95 145
e 96 111
e 96 134
e 97 116
e 97 152
e 98 109
e 99 133
e 99 154
e 100 101
e 100 129
e 100 136
e 100 158
e 102 122
e 103 136
e 105 117
e 106 116
e 106 155
e 108 133
e 108 156
e 109 130
e 110 141
e 111 146
e 112 143
e 113 119
e 114 152
e 115 147
e 117 123
e 118 146
e 118 159
e 120 126
e 120 158
e 121 131
e 121 133
e 121 137
e 121 151
e 122 154
e 124 158
e 127 153
e 129 149
e 133 144
e 153 157
